c Arquivo convertido de dwt__245.mtx
p edge 245 608
e 1 2
e 1 3
e 1 4
e 2 3
e 3 4
e 3 5
e 4 5
e 4 6
e 5 6
e 5 7
e 5 25
e 5 27
e 5 28
e 5 29
e 5 30
e 6 7
e 6 8
e 6 26
e 6 28
e 6 29
e 6 30
e 7 8
e 7 9
e 8 9
e 8 10
e 8 12
e 8 29
e 8 30
e 9 10
e 9 29
e 9 30
e 10 11
e 10 12
e 11 12
e 11 13
e 11 29
e 11 30
e 11 32
e 11 33
e 11 34
e 12 13
e 12 14
e 12 29
e 12 30
e 12 33
e 12 35
e 13 14
e 13 15
e 14 15
e 14 16
e 14 18
e 15 16
e 16 17
e 16 18
e 17 18
e 17 19
e 17 34
e 17 36
e 17 37
e 17 38
e 17 39
e 18 19
e 18 21
e 18 35
e 18 37
e 18 38
e 18 39
e 19 20
e 19 21
e 20 21
e 20 22
e 20 38
e 20 39
e 21 22
e 21 24
e 21 38
e 21 39
e 22 23
e 22 24
e 23 24
e 23 38
e 23 39
e 23 41
e 23 42
e 23 45
e 24 38
e 24 39
e 24 42
e 24 46
e 25 27
e 25 28
e 26 28
e 27 28
e 27 29
e 27 30
e 27 47
e 27 54
e 28 29
e 28 30
e 28 47
e 28 54
e 29 30
e 29 31
e 29 32
e 29 33
e 30 32
e 30 33
e 32 33
e 32 34
e 32 48
e 32 58
e 33 34
e 33 35
e 33 48
e 33 58
e 34 36
e 34 37
e 35 37
e 36 37
e 36 38
e 36 39
e 36 49
e 36 64
e 37 38
e 37 39
e 37 49
e 37 64
e 38 39
e 38 40
e 38 41
e 38 42
e 39 41
e 39 42
e 41 42
e 41 43
e 41 44
e 41 45
e 42 43
e 42 44
e 42 46
e 43 44
e 43 45
e 43 46
e 43 50
e 43 68
e 44 45
e 44 46
e 44 50
e 44 68
e 45 46
e 45 68
e 45 90
e 46 50
e 46 68
e 46 69
e 46 91
e 46 130
e 47 48
e 47 54
e 47 55
e 47 78
e 48 58
e 48 59
e 49 50
e 49 64
e 49 65
e 49 91
e 50 68
e 50 69
e 51 52
e 51 53
e 51 73
e 52 53
e 52 55
e 52 74
e 53 54
e 53 55
e 54 55
e 54 56
e 54 57
e 54 73
e 54 74
e 55 56
e 55 57
e 55 74
e 56 57
e 56 58
e 56 59
e 56 75
e 56 76
e 57 58
e 57 59
e 57 75
e 57 76
e 58 59
e 58 60
e 58 77
e 58 78
e 59 60
e 59 62
e 59 78
e 60 61
e 60 62
e 61 62
e 61 63
e 61 77
e 61 85
e 62 63
e 62 65
e 62 78
e 62 86
e 63 64
e 63 65
e 64 65
e 64 66
e 64 67
e 64 85
e 64 86
e 65 66
e 65 67
e 65 86
e 66 67
e 66 68
e 66 69
e 66 88
e 66 89
e 67 68
e 67 69
e 67 88
e 67 89
e 68 69
e 68 90
e 68 91
e 69 91
e 70 72
e 71 72
e 71 74
e 72 73
e 72 74
e 73 74
e 73 75
e 73 76
e 73 94
e 73 96
e 74 75
e 74 76
e 74 95
e 74 97
e 75 76
e 75 77
e 75 78
e 76 77
e 76 78
e 77 78
e 77 79
e 77 80
e 77 81
e 78 79
e 78 80
e 78 82
e 79 82
e 79 83
e 80 81
e 80 97
e 81 96
e 81 97
e 82 83
e 82 84
e 82 86
e 83 84
e 84 85
e 84 86
e 85 86
e 85 87
e 85 88
e 85 89
e 85 96
e 85 98
e 86 87
e 86 88
e 86 89
e 86 97
e 87 99
e 88 89
e 88 90
e 88 91
e 89 90
e 89 91
e 90 91
e 90 92
e 90 93
e 91 92
e 92 93
e 92 99
e 93 98
e 93 99
e 94 95
e 94 96
e 95 96
e 95 97
e 96 97
e 96 98
e 96 107
e 96 133
e 96 138
e 97 98
e 97 99
e 97 133
e 97 135
e 97 137
e 98 99
e 98 100
e 98 102
e 98 103
e 98 109
e 99 101
e 99 103
e 99 137
e 99 138
e 100 102
e 100 138
e 101 103
e 101 137
e 101 139
e 102 103
e 102 120
e 102 138
e 102 139
e 102 140
e 102 160
e 103 116
e 103 139
e 103 140
e 103 161
e 104 105
e 104 109
e 104 110
e 104 111
e 104 219
e 105 106
e 105 142
e 106 107
e 106 143
e 107 108
e 108 109
e 108 144
e 109 110
e 109 111
e 109 145
e 109 217
e 109 218
e 110 111
e 110 217
e 110 218
e 110 219
e 111 210
e 111 218
e 111 219
e 112 113
e 113 114
e 114 115
e 114 173
e 114 177
e 115 116
e 116 117
e 117 118
e 117 148
e 117 149
e 117 150
e 117 176
e 118 119
e 118 173
e 118 177
e 119 120
e 120 121
e 121 122
e 122 123
e 122 181
e 122 184
e 123 124
e 123 150
e 123 151
e 123 182
e 124 125
e 125 126
e 125 181
e 125 184
e 126 127
e 127 128
e 128 129
e 129 146
e 131 132
e 132 133
e 132 134
e 132 135
e 133 134
e 133 136
e 133 143
e 134 135
e 135 136
e 135 137
e 135 158
e 136 157
e 136 158
e 137 139
e 138 139
e 138 147
e 138 160
e 138 191
e 138 193
e 139 159
e 139 160
e 139 161
e 139 193
e 139 194
e 140 160
e 140 161
e 141 142
e 142 143
e 143 166
e 144 145
e 144 147
e 145 170
e 146 188
e 147 169
e 148 149
e 148 150
e 148 152
e 148 153
e 148 176
e 149 151
e 149 152
e 149 153
e 149 176
e 150 151
e 150 152
e 150 153
e 150 182
e 151 152
e 151 153
e 151 176
e 151 182
e 152 153
e 153 154
e 155 157
e 156 158
e 157 158
e 157 165
e 157 191
e 158 159
e 158 191
e 158 192
e 159 192
e 159 194
e 160 161
e 160 179
e 160 193
e 160 195
e 161 175
e 161 194
e 161 195
e 161 196
e 162 163
e 162 201
e 163 164
e 163 202
e 164 165
e 164 203
e 165 166
e 166 167
e 167 168
e 167 205
e 168 169
e 168 206
e 169 170
e 169 208
e 170 209
e 171 172
e 172 173
e 173 174
e 174 175
e 175 176
e 176 177
e 177 178
e 178 179
e 179 180
e 180 181
e 181 182
e 182 183
e 183 184
e 184 185
e 185 186
e 186 187
e 187 188
e 189 191
e 189 192
e 190 192
e 191 192
e 191 193
e 191 194
e 191 197
e 191 199
e 191 203
e 191 228
e 191 229
e 192 194
e 192 197
e 192 198
e 192 230
e 193 194
e 193 195
e 193 196
e 193 199
e 193 206
e 194 196
e 194 199
e 194 200
e 195 196
e 197 198
e 197 212
e 197 222
e 197 224
e 197 228
e 198 222
e 198 223
e 199 200
e 199 214
e 199 229
e 200 229
e 200 230
e 201 202
e 202 204
e 202 211
e 203 204
e 204 205
e 204 213
e 205 207
e 206 207
e 207 208
e 207 215
e 208 209
e 208 216
e 209 217
e 210 211
e 210 217
e 210 218
e 210 219
e 211 212
e 212 213
e 213 214
e 214 215
e 215 216
e 216 217
e 217 218
e 217 219
e 218 219
e 220 222
e 221 222
e 221 223
e 222 223
e 222 224
e 222 234
e 222 243
e 223 224
e 223 226
e 223 234
e 223 235
e 223 244
e 224 227
e 224 228
e 225 226
e 225 239
e 226 227
e 227 228
e 227 230
e 228 229
e 228 230
e 229 230
e 229 243
e 230 243
e 230 244
e 231 232
e 231 234
e 231 235
e 232 234
e 232 235
e 233 235
e 234 235
e 234 236
e 235 236
e 235 237
e 236 237
e 236 238
e 237 238
e 237 240
e 237 241
e 238 239
e 238 240
e 238 241
e 239 240
e 239 245
e 240 241
e 240 242
e 241 242
e 241 244
e 242 243
e 242 244
e 243 244
